109	22	4	42	
10	10	10	10

0	0	0	0	0	0	4	1	2	3	4
1	0	10	0	0	8	1	5
2	0	0	0	5	8	3	9	12	19
3	0	0	0	6	6	1	11
4	9	0	0	0	2	1	8
5	3	0	0	0	4	1	6
6	0	4	0	0	1	1	7
7	0	0	0	5	10	1	12
8	0	6	0	0	5	1	10
9	0	7	0	0	10	1	14
10	0	0	0	9	2	1	15
11	0	0	0	9	8	1	16
12	4	0	0	0	3	1	13
13	0	0	3	0	2	1	17
14	0	0	0	2	6	2	17	20
15	3	0	0	0	4	1	19
16	0	0	5	0	8	1	18
17	0	3	0	0	4	1	21
18	0	0	7	0	7	1	21
19	10	0	0	0	8	1	21
20	2	0	0	0	3	1	21
21	0	0	0	0	0	0
